\* Problem: Unknown *\

Minimize
 obj: - 100 x_1 - 11000 x_2 - 10900 x_3 - 10800 x_4 - 10700 x_5
 - 10700 x_6 - 10600 x_7 - 10500 x_8 - 10500 x_9 - 10500 x_10
 - 10400 x_11 - 10400 x_12 - 10400 x_13 - 10300 x_14 - 10300 x_15
 - 10200 x_16 - 10200 x_17 - 10100 x_18 - 10100 x_19 - 10000 x_20
 - 10000 x_21 - 10000 x_22 - 9900 x_23 - 9800 x_24 - 9800 x_25
 - 9700 x_26 - 9700 x_27 - 9700 x_28 - 9600 x_29 - 9600 x_30 - 9600 x_31
 - 9600 x_32 - 9500 x_33 - 9400 x_34 - 9300 x_35 - 9200 x_36 - 9100 x_37
 - 9000 x_38 - 8900 x_39 - 8800 x_40 - 8700 x_41 - 8600 x_42 - 8600 x_43
 - 8600 x_44 - 8600 x_45 - 8500 x_46 - 8500 x_47 - 8400 x_48 - 8300 x_49
 - 8200 x_50 - 8100 x_51 - 8000 x_52 - 7900 x_53 + 2200 x_54 - 9500 x_55
 - 9500 x_56 - 1100 x_57 - 1100 x_58 - 1100 x_59 - 1000 x_60 - 1000 x_61
 - 1000 x_62 - 900 x_63 - 900 x_64 - 800 x_65 - 800 x_66 - 700 x_67
 - 700 x_68 - 600 x_69 - 600 x_70 - 600 x_71 - 500 x_72 - 400 x_73
 - 400 x_74 - 300 x_75 - 300 x_76 - 300 x_77 - 200 x_78 - 200 x_79
 - 200 x_80 - 200 x_81 - 100 x_82 + 100 x_84 + 200 x_85 + 300 x_86
 + 400 x_87 + 500 x_88 + 600 x_89 + 700 x_90 + 800 x_91 + 800 x_92
 + 800 x_93 + 800 x_94 + 900 x_95 + 900 x_96 + 1000 x_97 + 1100 x_98
 + 1200 x_99 + 1300 x_100 + 1400 x_101 + 1500 x_102 + 11600 x_103
 - 100 x_104 - 100 x_105

Subject To
 r_1: + x_1 = 14.3846857142851
 r_2: + x_60 + x_11 >= 0
 r_3: + x_82 + x_33 - ~r_3 = 0
 r_4: + x_100 + x_51 - ~r_4 = 0
 r_5: + x_65 + x_16 - ~r_5 = 0
 r_6: + x_72 + x_23 - ~r_6 = 0
 r_7: + x_95 + x_46 - ~r_7 = 0
 r_8: + x_97 + x_48 - ~r_8 = 0
 r_9: + x_61 + x_12 - ~r_9 = 0
 r_10: + x_5 - ~r_10 = 0
 r_11: + x_6 - ~r_11 = 0
 r_12: + x_91 + x_42 - ~r_12 = 0
 r_13: + x_3 - ~r_13 = 0
 r_14: + x_92 + x_43 - ~r_14 = 0
 r_15: + x_78 + x_29 - ~r_15 = 0
 r_16: + x_2 - ~r_16 = 0
 r_17: + x_63 + x_14 - ~r_17 = 0
 r_18: + x_4 - ~r_18 = 0
 r_19: + x_102 + x_53 - ~r_19 = 0
 r_20: + x_75 + x_26 - ~r_20 = 0
 r_21: + x_79 + x_30 - ~r_21 = 0
 r_22: + x_73 + x_24 - ~r_22 = 0
 r_23: + x_67 + x_18 - ~r_23 = 0
 r_24: + x_104 + x_55 - ~r_24 = 0
 r_25: + x_76 + x_27 - ~r_25 = 0
 r_26: + x_89 + x_40 - ~r_26 = 0
 r_27: + x_88 + x_39 - ~r_27 = 0
 r_28: + x_80 + x_31 - ~r_28 = 0
 r_29: + x_74 + x_25 - ~r_29 = 0
 r_30: + x_7 - ~r_30 = 0
 r_31: + x_68 + x_19 - ~r_31 = 0
 r_32: + x_56 + x_55 + x_54 + x_53 + x_52 + x_51 + x_50 + x_49 + x_48
 + x_47 + x_46 + x_45 + x_44 + x_43 + x_42 + x_41 + x_40 + x_39 + x_38
 + x_37 + x_36 + x_35 + x_34 + x_33 + x_32 + x_31 + x_30 + x_29 + x_28
 + x_27 + x_26 + x_25 + x_24 + x_23 + x_22 + x_21 + x_20 + x_19 + x_18
 + x_17 + x_16 + x_15 + x_14 + x_13 + x_12 + x_11 + x_10 + x_9 + x_8
 + x_7 + x_6 + x_5 + x_4 + x_3 + x_2 = 1000
 r_33: + x_77 + x_28 - ~r_33 = 0
 r_34: + x_69 + x_20 - ~r_34 = 0
 r_35: + x_105 + x_56 - ~r_35 = 0
 r_36: + x_86 + x_37 - ~r_36 = 0
 r_37: + x_64 + x_15 - ~r_37 = 0
 r_38: + x_83 + x_34 - ~r_38 = 0
 r_39: + x_99 + x_50 - ~r_39 = 0
 r_40: + x_84 + x_35 - ~r_40 = 0
 r_41: + x_93 + x_44 - ~r_41 = 0
 r_42: + x_62 + x_13 - ~r_42 = 0
 r_43: + x_98 + x_49 - ~r_43 = 0
 r_44: + x_96 + x_47 - ~r_44 = 0
 r_45: + x_85 + x_36 - ~r_45 = 0
 r_46: + x_66 + x_17 - ~r_46 = 0
 r_47: + x_94 + x_45 - ~r_47 = 0
 r_48: + x_101 + x_52 - ~r_48 = 0
 r_49: + x_70 + x_21 - ~r_49 = 0
 r_50: + x_90 + x_41 - ~r_50 = 0
 r_51: + x_87 + x_38 - ~r_51 = 0
 r_52: + x_81 + x_32 - ~r_52 = 0
 r_53: + x_71 + x_22 - ~r_53 = 0
 r_54: + x_57 + x_8 - ~r_54 = 0
 r_55: + x_58 + x_9 + x_1 - ~r_55 = 0
 r_56: + x_59 + x_10 - ~r_56 = 0
 r_57: + x_56 + x_55 + x_54 + x_53 + x_52 + x_51 + x_50 + x_49 + x_48
 + x_47 + x_46 + x_45 + x_44 + x_43 + x_42 + x_41 + x_40 + x_39 + x_38
 + x_37 + x_36 + x_35 + x_34 + x_33 + x_32 + x_31 + x_30 + x_29 + x_28
 + x_27 + x_26 + x_25 + x_24 + x_23 + x_22 + x_21 + x_20 + x_19 + x_18
 + x_17 + x_16 + x_15 + x_14 + x_13 + x_12 + x_11 + x_10 + x_9 + x_8
 + x_7 + x_6 + x_5 + x_4 + x_3 + x_2 - ~r_57 = 0
 r_58: + x_105 + x_104 + x_103 + x_102 + x_101 + x_100 + x_99 + x_98
 + x_97 + x_96 + x_95 + x_94 + x_93 + x_92 + x_91 + x_90 + x_89 + x_88
 + x_87 + x_86 + x_85 + x_84 + x_83 + x_82 + x_81 + x_80 + x_79 + x_78
 + x_77 + x_76 + x_75 + x_74 + x_73 + x_72 + x_71 + x_70 + x_69 + x_68
 + x_67 + x_56 + x_55 + x_54 + x_53 + x_52 + x_51 + x_50 + x_49 + x_48
 + x_47 + x_46 + x_45 + x_44 + x_43 + x_42 + x_41 + x_40 + x_39 + x_38
 + x_37 + x_36 + x_35 + x_34 + x_33 + x_32 + x_31 + x_30 + x_29 + x_28
 + x_27 + x_26 + x_25 + x_24 + x_23 + x_22 + x_21 + x_20 + x_19 + x_18
 - ~r_58 = 0
 r_59: + x_105 + x_104 + x_103 + x_102 + x_101 + x_100 + x_99 + x_98
 + x_97 + x_96 + x_95 + x_94 + x_93 + x_92 + x_91 + x_90 + x_89 + x_88
 + x_87 + x_86 + x_85 + x_84 + x_83 + x_82 + x_81 + x_80 + x_79 + x_78
 + x_77 + x_76 + x_75 + x_74 + x_73 + x_72 + x_71 + x_70 + x_69 + x_56
 + x_55 + x_54 + x_53 + x_52 + x_51 + x_50 + x_49 + x_48 + x_47 + x_46
 + x_45 + x_44 + x_43 + x_42 + x_41 + x_40 + x_39 + x_38 + x_37 + x_36
 + x_35 + x_34 + x_33 + x_32 + x_31 + x_30 + x_29 + x_28 + x_27 + x_26
 + x_25 + x_24 + x_23 + x_22 + x_21 + x_20 - ~r_59 = 0
 r_60: + x_105 + x_104 + x_103 + x_102 + x_101 + x_100 + x_99 + x_98
 + x_97 + x_96 + x_95 + x_94 + x_93 + x_92 + x_91 + x_90 + x_89 + x_88
 + x_87 + x_86 + x_85 + x_84 + x_83 + x_82 + x_81 + x_80 + x_79 + x_78
 + x_77 + x_76 + x_75 + x_74 + x_73 + x_72 + x_56 + x_55 + x_54 + x_53
 + x_52 + x_51 + x_50 + x_49 + x_48 + x_47 + x_46 + x_45 + x_44 + x_43
 + x_42 + x_41 + x_40 + x_39 + x_38 + x_37 + x_36 + x_35 + x_34 + x_33
 + x_32 + x_31 + x_30 + x_29 + x_28 + x_27 + x_26 + x_25 + x_24 + x_23
 - ~r_60 = 0
 r_61: + x_105 + x_104 + x_103 + x_102 + x_101 + x_100 + x_99 + x_98
 + x_97 + x_96 + x_95 + x_94 + x_93 + x_92 + x_91 + x_90 + x_89 + x_88
 + x_87 + x_86 + x_85 + x_84 + x_83 + x_82 + x_81 + x_80 + x_79 + x_78
 + x_77 + x_76 + x_75 + x_74 + x_73 + x_56 + x_55 + x_54 + x_53 + x_52
 + x_51 + x_50 + x_49 + x_48 + x_47 + x_46 + x_45 + x_44 + x_43 + x_42
 + x_41 + x_40 + x_39 + x_38 + x_37 + x_36 + x_35 + x_34 + x_33 + x_32
 + x_31 + x_30 + x_29 + x_28 + x_27 + x_26 + x_25 + x_24 - ~r_61 = 0
 r_62: + x_105 + x_104 + x_103 + x_102 + x_101 + x_100 + x_99 + x_98
 + x_97 + x_96 + x_95 + x_94 + x_93 + x_92 + x_91 + x_90 + x_89 + x_88
 + x_87 + x_86 + x_85 + x_84 + x_83 + x_82 + x_81 + x_80 + x_79 + x_78
 + x_77 + x_76 + x_75 + x_56 + x_55 + x_54 + x_53 + x_52 + x_51 + x_50
 + x_49 + x_48 + x_47 + x_46 + x_45 + x_44 + x_43 + x_42 + x_41 + x_40
 + x_39 + x_38 + x_37 + x_36 + x_35 + x_34 + x_33 + x_32 + x_31 + x_30
 + x_29 + x_28 + x_27 + x_26 - ~r_62 = 0
 r_63: + x_105 + x_104 + x_103 + x_102 + x_101 + x_100 + x_99 + x_98
 + x_97 + x_96 + x_95 + x_94 + x_93 + x_92 + x_91 + x_90 + x_89 + x_88
 + x_87 + x_86 + x_85 + x_84 + x_83 + x_82 + x_81 + x_80 + x_79 + x_78
 + x_56 + x_55 + x_54 + x_53 + x_52 + x_51 + x_50 + x_49 + x_48 + x_47
 + x_46 + x_45 + x_44 + x_43 + x_42 + x_41 + x_40 + x_39 + x_38 + x_37
 + x_36 + x_35 + x_34 + x_33 + x_32 + x_31 + x_30 + x_29 - ~r_63 = 0
 r_64: + x_103 + x_102 + x_101 + x_100 + x_99 + x_98 + x_97 + x_96
 + x_95 + x_94 + x_93 + x_92 + x_91 + x_90 + x_89 + x_88 + x_87 + x_86
 + x_85 + x_84 + x_83 + x_82 + x_54 + x_53 + x_52 + x_51 + x_50 + x_49
 + x_48 + x_47 + x_46 + x_45 + x_44 + x_43 + x_42 + x_41 + x_40 + x_39
 + x_38 + x_37 + x_36 + x_35 + x_34 + x_33 - ~r_64 = 0
 r_65: + x_103 + x_102 + x_101 + x_100 + x_99 + x_98 + x_97 + x_96
 + x_95 + x_94 + x_93 + x_92 + x_91 + x_90 + x_89 + x_88 + x_87 + x_86
 + x_85 + x_84 + x_83 + x_54 + x_53 + x_52 + x_51 + x_50 + x_49 + x_48
 + x_47 + x_46 + x_45 + x_44 + x_43 + x_42 + x_41 + x_40 + x_39 + x_38
 + x_37 + x_36 + x_35 + x_34 - ~r_65 = 0
 r_66: + x_103 + x_102 + x_101 + x_100 + x_99 + x_98 + x_97 + x_96
 + x_95 + x_94 + x_93 + x_92 + x_91 + x_90 + x_89 + x_88 + x_87 + x_86
 + x_85 + x_84 + x_54 + x_53 + x_52 + x_51 + x_50 + x_49 + x_48 + x_47
 + x_46 + x_45 + x_44 + x_43 + x_42 + x_41 + x_40 + x_39 + x_38 + x_37
 + x_36 + x_35 - ~r_66 = 0
 r_67: + x_103 + x_102 + x_101 + x_100 + x_99 + x_98 + x_97 + x_96
 + x_95 + x_94 + x_93 + x_92 + x_91 + x_90 + x_89 + x_88 + x_87 + x_86
 + x_85 + x_54 + x_53 + x_52 + x_51 + x_50 + x_49 + x_48 + x_47 + x_46
 + x_45 + x_44 + x_43 + x_42 + x_41 + x_40 + x_39 + x_38 + x_37 + x_36
 - ~r_67 = 0
 r_68: + x_56 + x_55 + x_54 + x_53 + x_52 + x_51 + x_50 + x_49 + x_48
 + x_47 + x_46 + x_45 + x_44 + x_43 + x_42 + x_41 + x_40 + x_39 + x_38
 + x_37 + x_36 + x_35 + x_34 + x_33 + x_32 + x_31 + x_30 + x_29 + x_28
 + x_27 + x_26 + x_25 + x_24 + x_23 + x_22 + x_21 + x_20 + x_19 + x_18
 + x_17 + x_16 + x_15 + x_14 + x_13 + x_12 + x_11 + x_10 + x_9 + x_8
 + x_7 + x_6 + x_5 + x_4 + x_3 - ~r_68 = 0
 r_69: + x_103 + x_102 + x_101 + x_100 + x_99 + x_98 + x_97 + x_96
 + x_95 + x_94 + x_93 + x_92 + x_91 + x_90 + x_89 + x_88 + x_87 + x_86
 + x_54 + x_53 + x_52 + x_51 + x_50 + x_49 + x_48 + x_47 + x_46 + x_45
 + x_44 + x_43 + x_42 + x_41 + x_40 + x_39 + x_38 + x_37 - ~r_69 = 0
 r_70: + x_103 + x_102 + x_101 + x_100 + x_99 + x_98 + x_97 + x_96
 + x_95 + x_94 + x_93 + x_92 + x_91 + x_90 + x_89 + x_88 + x_87 + x_54
 + x_53 + x_52 + x_51 + x_50 + x_49 + x_48 + x_47 + x_46 + x_45 + x_44
 + x_43 + x_42 + x_41 + x_40 + x_39 + x_38 - ~r_70 = 0
 r_71: + x_103 + x_102 + x_101 + x_100 + x_99 + x_98 + x_97 + x_96
 + x_95 + x_94 + x_93 + x_92 + x_91 + x_90 + x_89 + x_88 + x_54 + x_53
 + x_52 + x_51 + x_50 + x_49 + x_48 + x_47 + x_46 + x_45 + x_44 + x_43
 + x_42 + x_41 + x_40 + x_39 - ~r_71 = 0
 r_72: + x_103 + x_102 + x_101 + x_100 + x_99 + x_98 + x_97 + x_96
 + x_95 + x_94 + x_93 + x_92 + x_91 + x_90 + x_89 + x_54 + x_53 + x_52
 + x_51 + x_50 + x_49 + x_48 + x_47 + x_46 + x_45 + x_44 + x_43 + x_42
 + x_41 + x_40 - ~r_72 = 0
 r_73: + x_103 + x_102 + x_101 + x_100 + x_99 + x_98 + x_97 + x_96
 + x_95 + x_94 + x_93 + x_92 + x_91 + x_90 + x_54 + x_53 + x_52 + x_51
 + x_50 + x_49 + x_48 + x_47 + x_46 + x_45 + x_44 + x_43 + x_42 + x_41
 - ~r_73 = 0
 r_74: + x_103 + x_102 + x_101 + x_100 + x_99 + x_98 + x_97 + x_96
 + x_95 + x_94 + x_93 + x_92 + x_91 + x_54 + x_53 + x_52 + x_51 + x_50
 + x_49 + x_48 + x_47 + x_46 + x_45 + x_44 + x_43 + x_42 - ~r_74 = 0
 r_75: + x_103 + x_102 + x_101 + x_100 + x_99 + x_98 + x_97 + x_96
 + x_95 + x_54 + x_53 + x_52 + x_51 + x_50 + x_49 + x_48 + x_47 + x_46
 - ~r_75 = 0
 r_76: + x_103 + x_102 + x_101 + x_100 + x_99 + x_98 + x_97 + x_54
 + x_53 + x_52 + x_51 + x_50 + x_49 + x_48 - ~r_76 = 0
 r_77: + x_103 + x_102 + x_101 + x_100 + x_99 + x_98 + x_54 + x_53
 + x_52 + x_51 + x_50 + x_49 - ~r_77 = 0
 r_78: + x_103 + x_102 + x_101 + x_100 + x_99 + x_54 + x_53 + x_52
 + x_51 + x_50 - ~r_78 = 0
 r_79: + x_56 + x_55 + x_54 + x_53 + x_52 + x_51 + x_50 + x_49 + x_48
 + x_47 + x_46 + x_45 + x_44 + x_43 + x_42 + x_41 + x_40 + x_39 + x_38
 + x_37 + x_36 + x_35 + x_34 + x_33 + x_32 + x_31 + x_30 + x_29 + x_28
 + x_27 + x_26 + x_25 + x_24 + x_23 + x_22 + x_21 + x_20 + x_19 + x_18
 + x_17 + x_16 + x_15 + x_14 + x_13 + x_12 + x_11 + x_10 + x_9 + x_8
 + x_7 + x_6 + x_5 + x_4 - ~r_79 = 0
 r_80: + x_103 + x_102 + x_101 + x_100 + x_54 + x_53 + x_52 + x_51
 - ~r_80 = 0
 r_81: + x_103 + x_102 + x_101 + x_54 + x_53 + x_52 - ~r_81 = 0
 r_82: + x_56 + x_55 + x_54 + x_53 + x_52 + x_51 + x_50 + x_49 + x_48
 + x_47 + x_46 + x_45 + x_44 + x_43 + x_42 + x_41 + x_40 + x_39 + x_38
 + x_37 + x_36 + x_35 + x_34 + x_33 + x_32 + x_31 + x_30 + x_29 + x_28
 + x_27 + x_26 + x_25 + x_24 + x_23 + x_22 + x_21 + x_20 + x_19 + x_18
 + x_17 + x_16 + x_15 + x_14 + x_13 + x_12 + x_11 + x_10 + x_9 + x_8
 + x_7 + x_6 + x_5 - ~r_82 = 0
 r_83: + x_56 + x_55 + x_54 + x_53 + x_52 + x_51 + x_50 + x_49 + x_48
 + x_47 + x_46 + x_45 + x_44 + x_43 + x_42 + x_41 + x_40 + x_39 + x_38
 + x_37 + x_36 + x_35 + x_34 + x_33 + x_32 + x_31 + x_30 + x_29 + x_28
 + x_27 + x_26 + x_25 + x_24 + x_23 + x_22 + x_21 + x_20 + x_19 + x_18
 + x_17 + x_16 + x_15 + x_14 + x_13 + x_12 + x_11 + x_10 + x_9 + x_8
 + x_7 - ~r_83 = 0
 r_84: + x_105 + x_104 + x_103 + x_102 + x_101 + x_100 + x_99 + x_98
 + x_97 + x_96 + x_95 + x_94 + x_93 + x_92 + x_91 + x_90 + x_89 + x_88
 + x_87 + x_86 + x_85 + x_84 + x_83 + x_82 + x_81 + x_80 + x_79 + x_78
 + x_77 + x_76 + x_75 + x_74 + x_73 + x_72 + x_71 + x_70 + x_69 + x_68
 + x_67 + x_66 + x_65 + x_64 + x_63 + x_62 + x_61 + x_60 + x_59 + x_58
 + x_57 + x_56 + x_55 + x_54 + x_53 + x_52 + x_51 + x_50 + x_49 + x_48
 + x_47 + x_46 + x_45 + x_44 + x_43 + x_42 + x_41 + x_40 + x_39 + x_38
 + x_37 + x_36 + x_35 + x_34 + x_33 + x_32 + x_31 + x_30 + x_29 + x_28
 + x_27 + x_26 + x_25 + x_24 + x_23 + x_22 + x_21 + x_20 + x_19 + x_18
 + x_17 + x_16 + x_15 + x_14 + x_13 + x_12 + x_11 + x_10 + x_9 + x_8
 - ~r_84 = 0
 r_85: + x_105 + x_104 + x_103 + x_102 + x_101 + x_100 + x_99 + x_98
 + x_97 + x_96 + x_95 + x_94 + x_93 + x_92 + x_91 + x_90 + x_89 + x_88
 + x_87 + x_86 + x_85 + x_84 + x_83 + x_82 + x_81 + x_80 + x_79 + x_78
 + x_77 + x_76 + x_75 + x_74 + x_73 + x_72 + x_71 + x_70 + x_69 + x_68
 + x_67 + x_66 + x_65 + x_64 + x_63 + x_62 + x_61 + x_56 + x_55 + x_54
 + x_53 + x_52 + x_51 + x_50 + x_49 + x_48 + x_47 + x_46 + x_45 + x_44
 + x_43 + x_42 + x_41 + x_40 + x_39 + x_38 + x_37 + x_36 + x_35 + x_34
 + x_33 + x_32 + x_31 + x_30 + x_29 + x_28 + x_27 + x_26 + x_25 + x_24
 + x_23 + x_22 + x_21 + x_20 + x_19 + x_18 + x_17 + x_16 + x_15 + x_14
 + x_13 + x_12 - ~r_85 = 0
 r_86: + x_105 + x_104 + x_103 + x_102 + x_101 + x_100 + x_99 + x_98
 + x_97 + x_96 + x_95 + x_94 + x_93 + x_92 + x_91 + x_90 + x_89 + x_88
 + x_87 + x_86 + x_85 + x_84 + x_83 + x_82 + x_81 + x_80 + x_79 + x_78
 + x_77 + x_76 + x_75 + x_74 + x_73 + x_72 + x_71 + x_70 + x_69 + x_68
 + x_67 + x_66 + x_65 + x_64 + x_63 + x_56 + x_55 + x_54 + x_53 + x_52
 + x_51 + x_50 + x_49 + x_48 + x_47 + x_46 + x_45 + x_44 + x_43 + x_42
 + x_41 + x_40 + x_39 + x_38 + x_37 + x_36 + x_35 + x_34 + x_33 + x_32
 + x_31 + x_30 + x_29 + x_28 + x_27 + x_26 + x_25 + x_24 + x_23 + x_22
 + x_21 + x_20 + x_19 + x_18 + x_17 + x_16 + x_15 + x_14 - ~r_86 = 0
 r_87: + x_105 + x_104 + x_103 + x_102 + x_101 + x_100 + x_99 + x_98
 + x_97 + x_96 + x_95 + x_94 + x_93 + x_92 + x_91 + x_90 + x_89 + x_88
 + x_87 + x_86 + x_85 + x_84 + x_83 + x_82 + x_81 + x_80 + x_79 + x_78
 + x_77 + x_76 + x_75 + x_74 + x_73 + x_72 + x_71 + x_70 + x_69 + x_68
 + x_67 + x_66 + x_65 + x_56 + x_55 + x_54 + x_53 + x_52 + x_51 + x_50
 + x_49 + x_48 + x_47 + x_46 + x_45 + x_44 + x_43 + x_42 + x_41 + x_40
 + x_39 + x_38 + x_37 + x_36 + x_35 + x_34 + x_33 + x_32 + x_31 + x_30
 + x_29 + x_28 + x_27 + x_26 + x_25 + x_24 + x_23 + x_22 + x_21 + x_20
 + x_19 + x_18 + x_17 + x_16 - ~r_87 = 0
 r_88: + x_103 + x_54 >= 0
 r_89: + x_103 + x_102 + x_54 + x_53 - ~r_89 = 0
 r_90: + x_105 + x_104 + x_56 + x_55 - ~r_90 = 0
 r_91: + x_105 + x_104 + x_103 + x_102 + x_101 + x_100 + x_99 + x_98
 + x_97 + x_96 + x_95 + x_94 + x_93 + x_92 + x_91 + x_90 + x_89 + x_88
 + x_87 + x_86 + x_85 + x_84 + x_83 + x_82 + x_81 + x_80 + x_79 + x_78
 + x_77 + x_76 + x_75 + x_74 + x_73 + x_72 + x_71 + x_70 + x_69 + x_68
 + x_67 + x_66 + x_65 + x_64 + x_63 + x_62 + x_61 + x_60 + x_59 + x_58
 + x_57 = 1000
 r_92: - x_1 + x_60 + x_11 - ~r_92 = -446634.761904761

Bounds
 0 <= ~r_3 <= 14.2857142857143
 0 <= ~r_4 <= 14.2857142857143
 0 <= ~r_5 <= 14.2857142857143
 0 <= ~r_6 <= 14.2857142857143
 0 <= ~r_7 <= 14.2857142857143
 0 <= ~r_8 <= 14.2857142857143
 0 <= ~r_9 <= 14.2857142857143
 0 <= ~r_10 <= 14.2857142857143
 0 <= ~r_11 <= 14.2857142857143
 0 <= ~r_12 <= 14.2857142857143
 0 <= ~r_13 <= 14.2857142857143
 0 <= ~r_14 <= 14.2857142857143
 0 <= ~r_15 <= 14.2857142857143
 0 <= ~r_16 <= 14.2857142857143
 0 <= ~r_17 <= 14.2857142857143
 0 <= ~r_18 <= 14.2857142857143
 0 <= ~r_19 <= 14.2857142857143
 0 <= ~r_20 <= 14.2857142857143
 0 <= ~r_21 <= 14.2857142857143
 0 <= ~r_22 <= 14.2857142857143
 0 <= ~r_23 <= 14.2857142857143
 0 <= ~r_24 <= 14.2857142857143
 0 <= ~r_25 <= 14.2857142857143
 0 <= ~r_26 <= 14.2857142857143
 0 <= ~r_27 <= 14.2857142857143
 0 <= ~r_28 <= 14.2857142857143
 0 <= ~r_29 <= 14.2857142857143
 0 <= ~r_30 <= 14.2857142857143
 0 <= ~r_31 <= 14.2857142857143
 0 <= ~r_33 <= 14.2857142857143
 0 <= ~r_34 <= 14.2857142857143
 0 <= ~r_35 <= 14.2857142857143
 0 <= ~r_36 <= 14.2857142857143
 0 <= ~r_37 <= 14.2857142857143
 0 <= ~r_38 <= 14.2857142857143
 0 <= ~r_39 <= 14.2857142857143
 0 <= ~r_40 <= 14.2857142857143
 0 <= ~r_41 <= 14.2857142857143
 0 <= ~r_42 <= 14.2857142857143
 0 <= ~r_43 <= 14.2857142857143
 0 <= ~r_44 <= 14.2857142857143
 0 <= ~r_45 <= 14.2857142857143
 0 <= ~r_46 <= 14.2857142857143
 0 <= ~r_47 <= 14.2857142857143
 0 <= ~r_48 <= 14.2857142857143
 0 <= ~r_49 <= 14.2857142857143
 0 <= ~r_50 <= 14.2857142857143
 0 <= ~r_51 <= 14.2857142857143
 0 <= ~r_52 <= 14.2857142857143
 0 <= ~r_53 <= 14.2857142857143
 0 <= ~r_54 <= 14.2857142857143
 0 <= ~r_55 <= 14.2857142857143
 0 <= ~r_56 <= 14.2857142857143
 0 <= ~r_57 <= 13200000
 0 <= ~r_58 <= 13200000
 0 <= ~r_59 <= 13200000
 0 <= ~r_60 <= 13200000
 0 <= ~r_61 <= 13200000
 0 <= ~r_62 <= 13200000
 0 <= ~r_63 <= 13200000
 0 <= ~r_64 <= 13200000
 0 <= ~r_65 <= 13200000
 0 <= ~r_66 <= 13200000
 0 <= ~r_67 <= 13200000
 0 <= ~r_68 <= 13200000
 0 <= ~r_69 <= 13200000
 0 <= ~r_70 <= 13200000
 0 <= ~r_71 <= 13200000
 0 <= ~r_72 <= 13200000
 0 <= ~r_73 <= 13200000
 0 <= ~r_74 <= 13200000
 0 <= ~r_75 <= 13200000
 0 <= ~r_76 <= 13200000
 0 <= ~r_77 <= 13200000
 0 <= ~r_78 <= 13200000
 0 <= ~r_79 <= 13200000
 0 <= ~r_80 <= 13200000
 0 <= ~r_81 <= 13200000
 0 <= ~r_82 <= 13200000
 0 <= ~r_83 <= 13200000
 0 <= ~r_84 <= 13200000
 0 <= ~r_85 <= 13200000
 0 <= ~r_86 <= 13200000
 0 <= ~r_87 <= 13200000
 0 <= ~r_89 <= 13200000
 0 <= ~r_90 <= 13200000
 0 <= ~r_92 <= 4166666.66666667

End
